CO_cluster_ice
      1.00000000
     35.00000000      0.00000000      0.00000000
      0.00000000     35.00000000      0.00000000
      0.00000000      0.00000000     35.00000000
   C   O
  50  50
Cartesian
      7.38097885      3.49682375      4.94629240
     15.40393400      5.80931610      4.19274940
     15.08953040     13.57023220      9.28226670
      8.72583320      6.09274190     15.07205490
      5.77560375      5.71406150     12.46672175
     12.58710460      7.83221985      5.43545660
     10.19162592     11.27262040      7.74273052
      3.91430270     12.69465680      6.23919695
      4.85269925     16.13252515      8.40933450
     12.53330365      7.55113450     13.44251090
      6.24008490     10.22951160      7.34056820
     13.26017700      4.26735610      7.88766755
      9.48796905     17.60374875      7.63871780
      7.16211685     13.65204890      7.86653770
      7.86503515     11.74344080     10.30576120
      5.88797965     13.32178050     14.08837570
     14.25264925     13.28436935      5.76252250
      5.63601710      8.83272705     16.13225705
     11.25029955     10.91116250      3.64528675
     14.34611745     13.45309560     12.88804685
      8.59295115      8.10937645     10.78453950
     13.07334385     16.56938115      6.89654385
      7.46509960     16.30505520     11.15184560
      4.89406680      6.86996135      5.56729355
      8.36826900     10.59032380     14.39743900
      6.28113850      5.06521750      9.21623570
     11.62625870      4.86690225      4.05020385
     10.94762935     10.55631990     11.02817520
      7.83293140     12.45881595      4.08007250
      4.04565980      7.78969625     10.08401030
     10.82518675     13.73001210      9.55363570
     12.08964505     10.74923150     15.12722120
     10.08765450     13.56004265     13.35827290
      4.42632435      9.70290300     12.90517130
     11.99491650     16.95493765     11.58172260
      8.15485405      7.95988165      4.49509130
     15.99902605      7.25805570      8.22861480
      2.45060172     12.67669655     13.78180965
     12.07988075      7.70557200      9.76416980
     14.89071290      9.46331890     11.11870585
      9.29182065      1.88579993      8.48795745
      3.51988140     15.74503700     11.39066775
     10.43782040     15.00727410      5.50078095
     15.53918275      9.21758215      4.86444280
      9.27322410      6.19205755      7.13702850
     13.22774810     10.97568290      8.66269250
     10.01334145      4.64804795     11.96722800
      4.11868240     12.80619620      9.69823400
      5.14571925      9.41158715      3.35278815
     16.91579680     10.90910520      7.33618025
      8.13370705      3.29220724      5.78213510
     15.21115365      5.37149410      5.23492095
     14.67670960     14.64205330      9.29316395
      8.76894655      7.01636845     15.74760670
      6.08377105      6.62031965     13.08911135
     11.98681365      7.70552055      6.39865835
      9.55145373      9.44128120      7.44989238
      4.62569100     13.14399240      5.46798350
      4.20709205     15.94389930      7.48304375
     11.41570920      7.32601765     13.56563355
      6.37380135      9.11031975      7.52727220
     12.25883855      4.49332275      7.38871630
      8.80985525     16.80288015      8.09340420
      8.10778150     13.58616350      7.22311100
      7.73925810     12.00688265     11.40929650
      6.76372865     13.97407970     14.43084650
     14.05197430     13.30467390      4.63305255
      5.54329895      7.72283645     16.40760380
     11.58070690     10.92351715      4.74249685
     13.31782200     13.66546965     12.44234670
      7.52217515      8.43508155     10.54110120
     12.89647555     17.08919870      7.90181770
      7.64294965     15.19216160     10.94355990
      5.52088950      6.02897120      6.01936510
      8.74888490      9.75673755     13.71408920
      6.55173540      3.95409210      9.19622340
     10.48988990      4.92465260      3.94950115
     11.74545610     10.59724750     11.84965950
      7.95396770     11.41851865      4.53786410
      3.66672705      7.93740465      9.01388880
     11.44914505     14.11091955      8.67678595
     12.67308175     11.73172105     15.21036965
      9.93689235     14.68866700     13.22718705
      5.49645495     10.01855015     12.64709075
     11.06669760     16.87081375     10.91846315
      9.21678695      8.18433455      4.12451515
     14.86865380      7.23661995      8.06048495
      2.49216121     12.46261660     12.66193495
     12.12655430      6.59708910     10.04282230
     15.12585270     10.16362305     11.98764770
      9.85104855      2.75415364      8.98371425
      4.31664240     15.52148220     12.17976445
     10.64037415     14.07717220      4.87086215
     15.19761285     10.02292235      4.12688850
      9.39813105      6.09607005      8.27074010
     13.52495270     10.50491015      7.66490445
      9.00154955      4.72500735     11.44090920
      4.28461145     11.68178655      9.78293610
      4.73452875     10.16314985      4.11381180
     17.11824835     10.56519520      8.40987315
Cartesian
      0.00140477      0.00055327     -0.00183441
      0.00098768     -0.00037114      0.00005935
     -0.00052492      0.00139829     -0.00090275
     -0.00087019      0.00105745      0.00022665
      0.00037963      0.00034030     -0.00100160
      0.00065916      0.00048364     -0.00114884
      0.00089024      0.00156022      0.00023845
     -0.00105701     -0.00024735      0.00073726
      0.00065371     -0.00010460     -0.00094421
     -0.00074620     -0.00162887     -0.00026972
     -0.00008232     -0.00066636      0.00092101
      0.00067782      0.00042914     -0.00056270
      0.00082225     -0.00088241     -0.00059521
     -0.00003515     -0.00053570      0.00037693
     -0.00088555     -0.00020453     -0.00026145
      0.00064513      0.00047812      0.00046382
     -0.00029342     -0.00000623     -0.00296971
      0.00005367     -0.00231740      0.00058480
     -0.00113916     -0.00006637     -0.00000488
      0.00089103     -0.00182812      0.00009421
     -0.00049473      0.00049834      0.00043786
     -0.00053856      0.00023072      0.00026601
      0.00022219     -0.00071901     -0.00048872
     -0.00029053      0.00060053     -0.00046183
     -0.00101267      0.00184119     -0.00098004
      0.00050962      0.00046935      0.00057711
      0.00039199      0.00053467      0.00006313
      0.00093421     -0.00149420      0.00082173
     -0.00066571     -0.00033926      0.00009799
     -0.00017133     -0.00082514     -0.00020855
     -0.00011155      0.00091746      0.00102788
      0.00064221      0.00004419      0.00000175
     -0.00008586      0.00131186     -0.00032546
     -0.00040327     -0.00021233      0.00049147
     -0.00054857      0.00143632      0.00141779
      0.00036928      0.00004464     -0.00017735
      0.00079345      0.00019133      0.00095743
     -0.00081265      0.00058913      0.00044449
     -0.00120139     -0.00083317     -0.00015992
      0.00116841     -0.00152939     -0.00051887
      0.00002605      0.00000789      0.00032744
     -0.00101953      0.00006376      0.00020498
      0.00010843     -0.00033229      0.00081729
      0.00048545     -0.00029383     -0.00091661
      0.00078468     -0.00132742      0.00043475
      0.00015612      0.00061278      0.00022398
      0.00077139      0.00007082      0.00047382
     -0.00005594      0.00126967     -0.00179904
      0.00004647      0.00077081      0.00040298
      0.00020767     -0.00002755     -0.00084116
     -0.00009004      0.00057957     -0.00019255
      0.00057911      0.00112850     -0.00057597
      0.00028157     -0.00064516      0.00018578
     -0.00118077      0.00059228     -0.00043929
     -0.00024639      0.00012893      0.00103294
      0.00156980      0.00037048      0.00020816
      0.00050030     -0.00001649     -0.00075569
      0.00003907     -0.00080172      0.00010844
      0.00050856     -0.00016579     -0.00036307
      0.00069388      0.00000028      0.00047555
      0.00096496     -0.00097824      0.00077449
     -0.00086948     -0.00071970     -0.00013926
     -0.00069986      0.00055100     -0.00004789
     -0.00033185     -0.00108527      0.00091997
      0.00020431      0.00032376      0.00057101
     -0.00071565      0.00153505      0.00010722
     -0.00075733     -0.00046548     -0.00027926
     -0.00060321     -0.00030266      0.00153207
     -0.00150555      0.00047495     -0.00058554
      0.00017744      0.00089651      0.00032007
     -0.00020625     -0.00049142      0.00127571
      0.00075056      0.00004215     -0.00066615
     -0.00002008      0.00017903     -0.00040407
     -0.00017094     -0.00068273     -0.00157671
     -0.00039392      0.00081355      0.00037850
      0.00102543      0.00078350      0.00051161
     -0.00016463     -0.00053593     -0.00065210
     -0.00040648     -0.00005635      0.00096023
     -0.00068156     -0.00059788      0.00035066
     -0.00040143      0.00013161      0.00069521
      0.00102561      0.00048310      0.00078493
     -0.00100578     -0.00018887      0.00022532
     -0.00041328     -0.00023975      0.00047086
     -0.00159507      0.00098452      0.00018824
      0.00047916     -0.00025959      0.00033927
     -0.00072426     -0.00040387      0.00055320
      0.00062758      0.00016708     -0.00011416
      0.00100039      0.00003726     -0.00050920
      0.00066044     -0.00043655     -0.00041683
      0.00018514     -0.00156522      0.00143796
     -0.00044627     -0.00069582      0.00040334
      0.00033615      0.00012090     -0.00072992
     -0.00030708     -0.00027390     -0.00074010
      0.00090369     -0.00007134     -0.00016079
      0.00054027      0.00089738     -0.00010202
      0.00010682      0.00035235     -0.00005220
      0.00035501     -0.00052497      0.00042916
     -0.00020574     -0.00033883     -0.00059875
     -0.00081077     -0.00018886     -0.00028447
     -0.00054083      0.00039799     -0.00171555
