CO_cluster_ice
      1.00000000
     35.00000000      0.00000000      0.00000000
      0.00000000     35.00000000      0.00000000
      0.00000000      0.00000000     35.00000000
   C   O
  50  50
Cartesian
      7.65391445      3.54964225      4.67695095
     15.50803240      5.82652035      4.15156280
     15.17210100     13.65420805      9.08322555
      8.65531380      6.21654880     15.05261065
      5.78337830      5.82129625     12.46086555
     12.59138965      7.87722810      5.32924840
     10.10280600     10.86145095      7.76093360
      3.81119935     12.69234540      6.25194815
      4.94874345     16.15261235      8.32995135
     12.54832285      7.44779070     13.36561590
      6.25814945     10.10003015      7.45510185
     13.25896005      4.24584125      7.79667245
      9.52623805     17.51548435      7.63673750
      7.08542520     13.55786530      7.91092750
      7.74018735     11.68470170     10.35261535
      5.97285955     13.35815740     14.15351140
     14.19401445     13.32192365      5.58035835
      5.65276215      8.56443000     16.11354325
     11.13327565     10.93832985      3.54918830
     14.35830690     13.26019520     12.81524055
      8.60200740      8.07834580     10.92489160
     13.08903050     16.51582905      6.88590770
      7.49688695     16.29895610     11.09821825
      4.89436710      6.82907995      5.58605145
      8.30695285     10.79921360     14.35576205
      6.36148870      5.14222695      9.24888895
     11.60615225      4.96476225      4.04203520
     10.93100260     10.57294000     11.22177070
      7.65559935     12.36826640      4.10123490
      4.00866130      7.66765405     10.08759150
     10.81379285     13.79241920      9.67265740
     12.15392080     10.66354975     15.20861405
     10.07516580     13.58861980     13.29259365
      4.39331375      9.62395595     13.08373990
     11.90155680     17.12813725     11.74622540
      8.17058165      8.02123525      4.53009585
     16.09930525      7.25897900      8.34963955
      2.24606480     12.83013867     14.13008913
     11.96952995      7.64918875      9.77202485
     15.04436815      9.33131535     11.13793135
      9.27297875      1.78201579      8.57457895
      3.39595715     15.83046010     11.43484440
     10.48575255     14.93698080      5.53565950
     15.59920600      9.22756660      4.76167300
      9.34706080      6.09473235      7.16353435
     13.28966030     10.95217585      8.61037065
     10.11567900      4.60341945     11.99756740
      4.13324240     12.76452240      9.48937955
      5.18257320      9.50451005      3.31487671
     16.97998225     11.04132470      7.17660510
      8.06854020      3.41948030      5.73516755
     15.29862285      5.48534070      5.22276020
     14.72272830     14.65881865      9.39544830
      8.60658295      7.13994190     15.72575725
      6.01390650      6.63461330     13.23258300
     12.24278265      7.77245735      6.41299190
      9.71121480      9.84823945      7.40448205
      4.62179480     13.05333470      5.52990410
      4.30778635     15.93913055      7.40734260
     11.45058495      7.32011420     13.66255100
      6.52101030      9.00633545      7.65757860
     12.22455710      4.34565215      7.31643955
      8.67314455     16.90709545      8.09566940
      8.04913970     13.51331485      7.29812335
      7.72740815     12.11306880     11.41178675
      6.65232960     14.24112235     14.41359395
     13.92064450     13.20844490      4.47289570
      5.39543900      7.60942105     16.68879240
     11.41622335     10.91398770      4.65680775
     13.38940155     13.75178840     12.45154750
      7.52373755      8.39340005     10.71161350
     13.02888160     17.16710905      7.82465180
      7.61328225     15.19387380     10.82803120
      5.44060930      5.86624255      5.87281030
      8.66773985      9.86803615     13.79674870
      6.68725785      4.04791450      9.18491350
     10.49940115      4.83056035      3.78954765
     11.72028270     10.53199840     12.04764610
      7.84694400     11.35233120      4.59272275
      3.63803230      7.97231610      9.04926260
     11.52360405     14.17423630      8.86078375
     12.52857270     11.74373970     15.24444460
      9.89157260     14.71734355     13.34582620
      5.26980090     10.17007845     12.59265945
     11.16399900     16.85120360     10.91677545
      9.23577165      8.13004780      4.12814815
     14.99841350      7.27479795      8.04039950
      2.68194171     12.42537903     12.26044777
     12.23477815      6.55941545      9.99697580
     15.17207720      9.86440665     12.14038455
      9.83184650      2.68578677      8.99761240
      4.32340370     15.56716805     12.05063440
     10.65210300     14.08973615      4.78528575
     15.30799970     10.04672515      4.01835770
      9.36613335      6.20193560      8.30245220
     13.61625125     10.49653850      7.61305790
      9.04924545      4.72925390     11.60417720
      4.28646925     11.65348485      9.71724985
      4.58275965     10.12995375      4.06114660
     17.03286480     10.58426075      8.22415020
Cartesian
      0.00249002      0.00030285     -0.00178110
      0.00070134      0.00079522     -0.00114747
      0.00195675     -0.00074484     -0.00248398
      0.00019247      0.00060801     -0.00063379
     -0.00038559      0.00097258      0.00159171
     -0.00028925      0.00036267      0.00001711
      0.00029295     -0.00023874      0.00111499
     -0.00036810     -0.00006253     -0.00113273
      0.00052765      0.00038025      0.00005434
      0.00147417     -0.00001031     -0.00103470
      0.00039893     -0.00158235      0.00050639
     -0.00092635     -0.00083900     -0.00098842
     -0.00025629     -0.00028064      0.00070431
     -0.00112193     -0.00091172      0.00034717
     -0.00058789     -0.00048502      0.00120048
      0.00018458      0.00045186      0.00062348
     -0.00032435      0.00059592      0.00076109
      0.00040799     -0.00150376     -0.00124487
     -0.00074725      0.00036517     -0.00178839
     -0.00119610     -0.00070918     -0.00139887
      0.00095600     -0.00100612      0.00197036
      0.00084946     -0.00115142     -0.00074244
      0.00023330      0.00109340     -0.00000253
      0.00052190     -0.00134440      0.00065518
      0.00003822      0.00104489      0.00075170
      0.00069846      0.00089453     -0.00074119
     -0.00077783      0.00071941     -0.00029744
     -0.00162022      0.00182564      0.00172745
     -0.00172685     -0.00100026      0.00040759
     -0.00046258     -0.00057010      0.00070312
      0.00019317     -0.00005870      0.00049093
      0.00039379     -0.00164150      0.00155527
      0.00023205     -0.00123978     -0.00071604
     -0.00005036     -0.00092776      0.00219331
     -0.00088938      0.00118979      0.00104543
     -0.00051155      0.00040686      0.00123813
      0.00064024     -0.00025450      0.00080813
     -0.00068884      0.00068318     -0.00025668
      0.00035225      0.00039741      0.00028911
      0.00057563     -0.00027968      0.00130209
     -0.00047916     -0.00152361      0.00063840
     -0.00036280      0.00097134      0.00011803
      0.00003667     -0.00112923     -0.00032202
      0.00037067      0.00050977     -0.00052380
      0.00076591      0.00062881     -0.00051325
      0.00111802     -0.00119535     -0.00072683
      0.00051261     -0.00064726     -0.00005340
     -0.00014413     -0.00242329     -0.00020192
      0.00064215      0.00037357     -0.00101078
      0.00073698      0.00203595     -0.00182627
     -0.00112900      0.00101062     -0.00068051
      0.00069894      0.00031933      0.00074721
      0.00020801      0.00139234      0.00141290
     -0.00124505      0.00142156      0.00030063
     -0.00101656      0.00004249      0.00071446
      0.00196932      0.00033746     -0.00036223
     -0.00046389     -0.00083684     -0.00095312
     -0.00029826     -0.00054842      0.00115159
      0.00102729      0.00019069     -0.00108006
     -0.00060174     -0.00019259      0.00113453
      0.00109992     -0.00069821      0.00117768
      0.00079018     -0.00143399     -0.00071766
     -0.00127016      0.00079110     -0.00020069
     -0.00006645      0.00006819     -0.00003063
     -0.00060499      0.00087694     -0.00069961
     -0.00072203      0.00252432     -0.00043803
     -0.00128450     -0.00108776     -0.00256827
     -0.00194799     -0.00155588      0.00307659
     -0.00083321     -0.00065487     -0.00052623
      0.00118845      0.00013548     -0.00007895
      0.00002777     -0.00007847      0.00133214
      0.00122319      0.00110438     -0.00025483
     -0.00036676     -0.00031677     -0.00124407
     -0.00108154     -0.00155426     -0.00065726
     -0.00101388      0.00102619      0.00088103
      0.00089953      0.00063170     -0.00042802
      0.00060865     -0.00062991     -0.00170195
      0.00051906     -0.00105833      0.00156253
     -0.00101775     -0.00013647      0.00037924
      0.00007099      0.00030173     -0.00038240
     -0.00019668      0.00033914      0.00205262
     -0.00121757      0.00073627      0.00019674
     -0.00034857      0.00092436      0.00133476
     -0.00167625      0.00124033     -0.00108205
      0.00091217      0.00003707     -0.00035067
      0.00127017     -0.00027647     -0.00068155
      0.00142076      0.00047754     -0.00005443
      0.00044869      0.00049870     -0.00046728
      0.00081655     -0.00018004     -0.00037727
      0.00055987     -0.00311970      0.00058377
      0.00016930     -0.00003467     -0.00005143
     -0.00037736      0.00037883     -0.00108828
      0.00041598      0.00076205     -0.00032856
      0.00071927      0.00047639     -0.00164637
     -0.00107342      0.00055559      0.00062120
      0.00105082     -0.00016302     -0.00055131
      0.00050295      0.00049089      0.00192751
      0.00012291      0.00043270     -0.00061624
     -0.00171879     -0.00023445     -0.00031504
     -0.00060462     -0.00011509     -0.00090785
